p cnf 539 1936
1 0
2 0
3 0
4 0
5 0
6 0
-7 0
8 0
9 0
10 0
11 0
12 0
13 0
14 0
15 0
16 0
17 0
18 0
19 0
20 0
21 0
22 0
23 24 25 26 0
-23 -24 0
-23 -25 0
-23 -26 0
-24 -25 0
-24 -26 0
-25 -26 0
27 -1 -28 0
1 -27 -28 0
-27 -1 28 0
1 27 28 0
-23 -28 0
1 -29 -30 0
29 -1 -30 0
30 -1 -29 0
30 1 29 0
-24 30 0
-27 31 0
-29 31 0
27 29 -31 0
1 -31 -32 0
-1 31 -32 0
-1 -31 32 0
1 31 32 0
-25 32 0
27 33 0
29 33 0
-27 -29 -33 0
-1 33 -34 0
1 -33 -34 0
34 -33 -1 0
1 33 34 0
-26 -34 0
29 -35 -36 0
35 -29 -36 0
-29 -35 36 0
29 35 36 0
-23 -36 0
-27 35 -37 0
27 -35 -37 0
37 -35 -27 0
37 35 27 0
-24 37 0
-1 38 0
-29 38 0
1 29 -38 0
35 -38 -39 0
-35 38 -39 0
-35 -38 39 0
35 38 39 0
-25 39 0
29 40 0
1 40 0
-29 -1 -40 0
-35 40 -41 0
35 -40 -41 0
41 -40 -35 0
35 40 41 0
-26 -41 0
42 -2 -43 0
2 -42 -43 0
-42 -2 43 0
2 42 43 0
-23 -43 0
2 -44 -45 0
44 -2 -45 0
45 -2 -44 0
45 2 44 0
-24 45 0
-42 46 0
-44 46 0
-47 46 0
-48 46 0
-49 46 0
-50 46 0
-51 46 0
52 0
2 -46 -53 0
-2 46 -53 0
-2 -46 53 0
2 46 53 0
-25 53 0
42 54 0
44 54 0
47 54 0
48 54 0
49 54 0
50 54 0
51 54 0
-55 0
-2 54 -56 0
2 -54 -56 0
56 -54 -2 0
2 54 56 0
-26 -56 0
44 -57 -58 0
57 -44 -58 0
-44 -57 58 0
44 57 58 0
-23 -58 0
57 -47 -59 0
47 -57 -59 0
59 -57 -47 0
59 57 47 0
-24 59 0
-44 60 0
-47 60 0
-48 60 0
-49 60 0
-50 60 0
-51 60 0
44 47 48 49 50 51 -60 0
57 -60 -61 0
-57 60 -61 0
-57 -60 61 0
57 60 61 0
-25 61 0
44 62 0
47 62 0
48 62 0
49 62 0
50 62 0
51 62 0
-63 0
-57 62 -64 0
57 -62 -64 0
64 -62 -57 0
57 62 64 0
-26 -64 0
47 -65 -66 0
65 -47 -66 0
-47 -65 66 0
47 65 66 0
-23 -66 0
65 -48 -67 0
48 -65 -67 0
67 -65 -48 0
67 65 48 0
-24 67 0
-47 68 0
-48 68 0
-49 68 0
-50 68 0
-51 68 0
47 48 49 50 51 -68 0
65 -68 -69 0
-65 68 -69 0
-65 -68 69 0
65 68 69 0
-25 69 0
47 70 0
48 70 0
49 70 0
50 70 0
51 70 0
-71 0
-65 70 -72 0
65 -70 -72 0
72 -70 -65 0
65 70 72 0
-26 -72 0
48 -73 -74 0
73 -48 -74 0
-48 -73 74 0
48 73 74 0
-23 -74 0
73 -49 -75 0
49 -73 -75 0
75 -73 -49 0
75 73 49 0
-24 75 0
-48 76 0
-49 76 0
-50 76 0
-51 76 0
48 49 50 51 -76 0
73 -76 -77 0
-73 76 -77 0
-73 -76 77 0
73 76 77 0
-25 77 0
48 78 0
49 78 0
50 78 0
51 78 0
-79 0
-73 78 -80 0
73 -78 -80 0
80 -78 -73 0
73 78 80 0
-26 -80 0
49 -81 -82 0
81 -49 -82 0
-49 -81 82 0
49 81 82 0
-23 -82 0
81 -50 -83 0
50 -81 -83 0
83 -81 -50 0
83 81 50 0
-24 83 0
81 -76 -84 0
-81 76 -84 0
-81 -76 84 0
81 76 84 0
-25 84 0
-81 78 -85 0
81 -78 -85 0
85 -78 -81 0
81 78 85 0
-26 -85 0
50 -86 -87 0
86 -50 -87 0
-50 -86 87 0
50 86 87 0
-23 -87 0
86 -51 -88 0
51 -86 -88 0
88 -86 -51 0
88 86 51 0
-24 88 0
86 -76 -89 0
-86 76 -89 0
-86 -76 89 0
86 76 89 0
-25 89 0
-86 78 -90 0
86 -78 -90 0
90 -78 -86 0
86 78 90 0
-26 -90 0
51 -91 -92 0
91 -51 -92 0
-51 -91 92 0
51 91 92 0
-23 -92 0
-48 91 -93 0
48 -91 -93 0
93 -91 -48 0
93 91 48 0
-24 93 0
-51 94 0
-73 94 0
51 73 -94 0
91 -94 -95 0
-91 94 -95 0
-91 -94 95 0
91 94 95 0
-25 95 0
51 96 0
73 96 0
-51 -73 -96 0
-91 96 -97 0
91 -96 -97 0
97 -96 -91 0
91 96 97 0
-26 -97 0
98 -3 -99 0
3 -98 -99 0
-98 -3 99 0
3 98 99 0
-23 -99 0
3 -100 -101 0
100 -3 -101 0
101 -3 -100 0
101 3 100 0
-24 101 0
-98 102 0
-100 102 0
-103 102 0
-104 102 0
-105 102 0
-106 102 0
-107 102 0
108 0
3 -102 -109 0
-3 102 -109 0
-3 -102 109 0
3 102 109 0
-25 109 0
98 110 0
100 110 0
103 110 0
104 110 0
105 110 0
106 110 0
107 110 0
-111 0
-3 110 -112 0
3 -110 -112 0
112 -110 -3 0
3 110 112 0
-26 -112 0
100 -113 -114 0
113 -100 -114 0
-100 -113 114 0
100 113 114 0
-23 -114 0
113 -103 -115 0
103 -113 -115 0
115 -113 -103 0
115 113 103 0
-24 115 0
-100 116 0
-103 116 0
-104 116 0
-105 116 0
-106 116 0
-107 116 0
117 0
113 -116 -118 0
-113 116 -118 0
-113 -116 118 0
113 116 118 0
-25 118 0
100 119 0
103 119 0
104 119 0
105 119 0
106 119 0
107 119 0
-120 0
-113 119 -121 0
113 -119 -121 0
121 -119 -113 0
113 119 121 0
-26 -121 0
103 -4 -122 0
4 -103 -122 0
-103 -4 122 0
103 4 122 0
-23 -122 0
4 -104 -123 0
104 -4 -123 0
123 -4 -104 0
123 4 104 0
-24 123 0
-103 124 0
-104 124 0
-105 124 0
-106 124 0
-107 124 0
103 104 105 106 107 -124 0
4 -124 -125 0
-4 124 -125 0
-4 -124 125 0
4 124 125 0
-25 125 0
103 126 0
104 126 0
105 126 0
106 126 0
107 126 0
-127 0
-4 126 -128 0
4 -126 -128 0
128 -126 -4 0
4 126 128 0
-26 -128 0
104 -129 -130 0
129 -104 -130 0
-104 -129 130 0
104 129 130 0
-23 -130 0
129 -105 -131 0
105 -129 -131 0
131 -129 -105 0
131 129 105 0
-24 131 0
-104 132 0
-105 132 0
-106 132 0
-107 132 0
104 105 106 107 -132 0
129 -132 -133 0
-129 132 -133 0
-129 -132 133 0
129 132 133 0
-25 133 0
104 134 0
105 134 0
106 134 0
107 134 0
-135 0
-129 134 -136 0
129 -134 -136 0
136 -134 -129 0
129 134 136 0
-26 -136 0
105 -137 -138 0
137 -105 -138 0
-105 -137 138 0
105 137 138 0
-23 -138 0
137 -106 -139 0
106 -137 -139 0
139 -137 -106 0
139 137 106 0
-24 139 0
137 -132 -140 0
-137 132 -140 0
-137 -132 140 0
137 132 140 0
-25 140 0
-137 134 -141 0
137 -134 -141 0
141 -134 -137 0
137 134 141 0
-26 -141 0
106 -142 -143 0
142 -106 -143 0
-106 -142 143 0
106 142 143 0
-23 -143 0
142 -107 -144 0
107 -142 -144 0
144 -142 -107 0
144 142 107 0
-24 144 0
142 -132 -145 0
-142 132 -145 0
-142 -132 145 0
142 132 145 0
-25 145 0
-142 134 -146 0
142 -134 -146 0
146 -134 -142 0
142 134 146 0
-26 -146 0
107 -147 -148 0
147 -107 -148 0
-107 -147 148 0
107 147 148 0
-23 -148 0
-104 147 -149 0
104 -147 -149 0
149 -147 -104 0
149 147 104 0
-24 149 0
-107 150 0
-129 150 0
107 129 -150 0
147 -150 -151 0
-147 150 -151 0
-147 -150 151 0
147 150 151 0
-25 151 0
107 152 0
129 152 0
-107 -129 -152 0
-147 152 -153 0
147 -152 -153 0
153 -152 -147 0
147 152 153 0
-26 -153 0
154 -5 -155 0
5 -154 -155 0
-154 -5 155 0
5 154 155 0
-23 -155 0
5 -156 -157 0
156 -5 -157 0
157 -5 -156 0
157 5 156 0
-24 157 0
-154 158 0
-156 158 0
-159 158 0
154 156 159 -158 0
5 -158 -160 0
-5 158 -160 0
-5 -158 160 0
5 158 160 0
-25 160 0
154 161 0
156 161 0
159 161 0
-154 -156 -159 -161 0
-5 161 -162 0
5 -161 -162 0
162 -161 -5 0
5 161 162 0
-26 -162 0
156 -6 -163 0
6 -156 -163 0
-156 -6 163 0
156 6 163 0
-23 -163 0
6 -159 -164 0
159 -6 -164 0
164 -6 -159 0
164 6 159 0
-24 164 0
-156 165 0
-159 165 0
156 159 -165 0
6 -165 -166 0
-6 165 -166 0
-6 -165 166 0
6 165 166 0
-25 166 0
156 167 0
159 167 0
-156 -159 -167 0
-6 167 -168 0
6 -167 -168 0
168 -167 -6 0
6 167 168 0
-26 -168 0
159 -7 -169 0
7 -159 -169 0
-159 -7 169 0
159 7 169 0
-23 -169 0
7 -159 -170 0
159 -7 -170 0
170 -7 -159 0
170 7 159 0
-24 170 0
-159 171 0
-7 171 0
159 7 -171 0
7 -171 -172 0
-7 171 -172 0
-7 -171 172 0
7 171 172 0
-25 172 0
159 173 0
7 173 0
-159 -7 -173 0
-7 173 -174 0
7 -173 -174 0
174 -173 -7 0
7 173 174 0
-26 -174 0
175 -8 -176 0
8 -175 -176 0
-175 -8 176 0
8 175 176 0
-23 -176 0
8 -177 -178 0
177 -8 -178 0
178 -8 -177 0
178 8 177 0
-24 178 0
-175 179 0
-177 179 0
-180 179 0
-181 179 0
-182 179 0
175 177 180 181 182 -179 0
8 -179 -183 0
-8 179 -183 0
-8 -179 183 0
8 179 183 0
-25 183 0
175 184 0
177 184 0
180 184 0
181 184 0
182 184 0
-185 0
-8 184 -186 0
8 -184 -186 0
186 -184 -8 0
8 184 186 0
-26 -186 0
177 -187 -188 0
187 -177 -188 0
-177 -187 188 0
177 187 188 0
-23 -188 0
187 -180 -189 0
180 -187 -189 0
189 -187 -180 0
189 187 180 0
-24 189 0
-177 190 0
-180 190 0
-181 190 0
-182 190 0
177 180 181 182 -190 0
187 -190 -191 0
-187 190 -191 0
-187 -190 191 0
187 190 191 0
-25 191 0
177 192 0
180 192 0
181 192 0
182 192 0
-193 0
-187 192 -194 0
187 -192 -194 0
194 -192 -187 0
187 192 194 0
-26 -194 0
180 -195 -196 0
195 -180 -196 0
-180 -195 196 0
180 195 196 0
-23 -196 0
195 -181 -197 0
181 -195 -197 0
197 -195 -181 0
197 195 181 0
-24 197 0
-180 198 0
-181 198 0
-182 198 0
180 181 182 -198 0
195 -198 -199 0
-195 198 -199 0
-195 -198 199 0
195 198 199 0
-25 199 0
180 200 0
181 200 0
182 200 0
-180 -181 -182 -200 0
-195 200 -201 0
195 -200 -201 0
201 -200 -195 0
195 200 201 0
-26 -201 0
181 -202 -203 0
202 -181 -203 0
-181 -202 203 0
181 202 203 0
-23 -203 0
202 -182 -204 0
182 -202 -204 0
204 -202 -182 0
204 202 182 0
-24 204 0
202 -198 -205 0
-202 198 -205 0
-202 -198 205 0
202 198 205 0
-25 205 0
-202 200 -206 0
202 -200 -206 0
206 -200 -202 0
202 200 206 0
-26 -206 0
182 -207 -208 0
207 -182 -208 0
-182 -207 208 0
182 207 208 0
-23 -208 0
-180 207 -209 0
180 -207 -209 0
209 -207 -180 0
209 207 180 0
-24 209 0
-182 210 0
-195 210 0
182 195 -210 0
207 -210 -211 0
-207 210 -211 0
-207 -210 211 0
207 210 211 0
-25 211 0
182 212 0
195 212 0
-182 -195 -212 0
-207 212 -213 0
207 -212 -213 0
213 -212 -207 0
207 212 213 0
-26 -213 0
214 -9 -215 0
9 -214 -215 0
-214 -9 215 0
9 214 215 0
-23 -215 0
9 -216 -217 0
216 -9 -217 0
217 -9 -216 0
217 9 216 0
-24 217 0
-27 218 0
-29 218 0
-214 218 0
-216 218 0
-219 218 0
-220 218 0
27 29 214 216 219 220 -218 0
9 -218 -221 0
-9 218 -221 0
-9 -218 221 0
9 218 221 0
-25 221 0
27 222 0
29 222 0
214 222 0
216 222 0
219 222 0
220 222 0
-223 0
-9 222 -224 0
9 -222 -224 0
224 -222 -9 0
9 222 224 0
-26 -224 0
216 -225 -226 0
225 -216 -226 0
-216 -225 226 0
216 225 226 0
-23 -226 0
225 -219 -227 0
219 -225 -227 0
227 -225 -219 0
227 225 219 0
-24 227 0
-27 228 0
-29 228 0
-216 228 0
-219 228 0
-220 228 0
27 29 216 219 220 -228 0
225 -228 -229 0
-225 228 -229 0
-225 -228 229 0
225 228 229 0
-25 229 0
27 230 0
29 230 0
216 230 0
219 230 0
220 230 0
-231 0
-225 230 -232 0
225 -230 -232 0
232 -230 -225 0
225 230 232 0
-26 -232 0
219 -233 -234 0
233 -219 -234 0
-219 -233 234 0
219 233 234 0
-23 -234 0
233 -220 -235 0
220 -233 -235 0
235 -233 -220 0
235 233 220 0
-24 235 0
-27 236 0
-29 236 0
-219 236 0
-220 236 0
27 29 219 220 -236 0
233 -236 -237 0
-233 236 -237 0
-233 -236 237 0
233 236 237 0
-25 237 0
27 238 0
29 238 0
219 238 0
220 238 0
-239 0
-233 238 -240 0
233 -238 -240 0
240 -238 -233 0
233 238 240 0
-26 -240 0
220 -10 -241 0
10 -220 -241 0
-220 -10 241 0
220 10 241 0
-23 -241 0
-27 10 -242 0
27 -10 -242 0
242 -10 -27 0
242 10 27 0
-24 242 0
-27 243 0
-29 243 0
-220 243 0
27 29 220 -243 0
10 -243 -244 0
-10 243 -244 0
-10 -243 244 0
10 243 244 0
-25 244 0
27 245 0
29 245 0
220 245 0
-27 -29 -220 -245 0
-10 245 -246 0
10 -245 -246 0
246 -245 -10 0
10 245 246 0
-26 -246 0
247 -11 -248 0
11 -247 -248 0
-247 -11 248 0
11 247 248 0
-23 -248 0
11 -249 -250 0
249 -11 -250 0
250 -11 -249 0
250 11 249 0
-24 250 0
-180 251 0
-181 251 0
-182 251 0
-247 251 0
-249 251 0
-252 251 0
-253 251 0
254 0
11 -251 -255 0
-11 251 -255 0
-11 -251 255 0
11 251 255 0
-25 255 0
180 256 0
181 256 0
182 256 0
247 256 0
249 256 0
252 256 0
253 256 0
-257 0
-11 256 -258 0
11 -256 -258 0
258 -256 -11 0
11 256 258 0
-26 -258 0
249 -259 -260 0
259 -249 -260 0
-249 -259 260 0
249 259 260 0
-23 -260 0
259 -252 -261 0
252 -259 -261 0
261 -259 -252 0
261 259 252 0
-24 261 0
-180 262 0
-181 262 0
-182 262 0
-249 262 0
-252 262 0
-253 262 0
263 0
259 -262 -264 0
-259 262 -264 0
-259 -262 264 0
259 262 264 0
-25 264 0
180 265 0
181 265 0
182 265 0
249 265 0
252 265 0
253 265 0
-266 0
-259 265 -267 0
259 -265 -267 0
267 -265 -259 0
259 265 267 0
-26 -267 0
252 -268 -269 0
268 -252 -269 0
-252 -268 269 0
252 268 269 0
-23 -269 0
268 -253 -270 0
253 -268 -270 0
270 -268 -253 0
270 268 253 0
-24 270 0
-180 271 0
-181 271 0
-182 271 0
-252 271 0
-253 271 0
180 181 182 252 253 -271 0
268 -271 -272 0
-268 271 -272 0
-268 -271 272 0
268 271 272 0
-25 272 0
180 273 0
181 273 0
182 273 0
252 273 0
253 273 0
-274 0
-268 273 -275 0
268 -273 -275 0
275 -273 -268 0
268 273 275 0
-26 -275 0
253 -276 -277 0
276 -253 -277 0
-253 -276 277 0
253 276 277 0
-23 -277 0
-182 276 -278 0
182 -276 -278 0
278 -276 -182 0
278 276 182 0
-24 278 0
-180 279 0
-181 279 0
-182 279 0
-253 279 0
180 181 182 253 -279 0
276 -279 -280 0
-276 279 -280 0
-276 -279 280 0
276 279 280 0
-25 280 0
180 281 0
181 281 0
182 281 0
253 281 0
-282 0
-276 281 -283 0
276 -281 -283 0
283 -281 -276 0
276 281 283 0
-26 -283 0
284 -12 -285 0
12 -284 -285 0
-284 -12 285 0
12 284 285 0
-23 -285 0
12 -286 -287 0
286 -12 -287 0
287 -12 -286 0
287 12 286 0
-24 287 0
-27 288 0
-29 288 0
-284 288 0
-286 288 0
-289 288 0
27 29 284 286 289 -288 0
12 -288 -290 0
-12 288 -290 0
-12 -288 290 0
12 288 290 0
-25 290 0
27 291 0
29 291 0
284 291 0
286 291 0
289 291 0
-292 0
-12 291 -293 0
12 -291 -293 0
293 -291 -12 0
12 291 293 0
-26 -293 0
286 -294 -295 0
294 -286 -295 0
-286 -294 295 0
286 294 295 0
-23 -295 0
294 -289 -296 0
289 -294 -296 0
296 -294 -289 0
296 294 289 0
-24 296 0
-27 297 0
-29 297 0
-286 297 0
-289 297 0
27 29 286 289 -297 0
294 -297 -298 0
-294 297 -298 0
-294 -297 298 0
294 297 298 0
-25 298 0
27 299 0
29 299 0
286 299 0
289 299 0
-300 0
-294 299 -301 0
294 -299 -301 0
301 -299 -294 0
294 299 301 0
-26 -301 0
289 -302 -303 0
302 -289 -303 0
-289 -302 303 0
289 302 303 0
-23 -303 0
-29 302 -304 0
29 -302 -304 0
304 -302 -29 0
304 302 29 0
-24 304 0
-27 305 0
-29 305 0
-289 305 0
27 29 289 -305 0
302 -305 -306 0
-302 305 -306 0
-302 -305 306 0
302 305 306 0
-25 306 0
27 307 0
29 307 0
289 307 0
-27 -29 -289 -307 0
-302 307 -308 0
302 -307 -308 0
308 -307 -302 0
302 307 308 0
-26 -308 0
309 -13 -310 0
13 -309 -310 0
-309 -13 310 0
13 309 310 0
-23 -310 0
13 -311 -312 0
311 -13 -312 0
312 -13 -311 0
312 13 311 0
-24 312 0
-309 313 0
-311 313 0
-314 313 0
309 311 314 -313 0
13 -313 -315 0
-13 313 -315 0
-13 -313 315 0
13 313 315 0
-25 315 0
309 316 0
311 316 0
314 316 0
-309 -311 -314 -316 0
-13 316 -317 0
13 -316 -317 0
317 -316 -13 0
13 316 317 0
-26 -317 0
311 -318 -319 0
318 -311 -319 0
-311 -318 319 0
311 318 319 0
-23 -319 0
318 -314 -320 0
314 -318 -320 0
320 -318 -314 0
320 318 314 0
-24 320 0
-311 321 0
-314 321 0
311 314 -321 0
318 -321 -322 0
-318 321 -322 0
-318 -321 322 0
318 321 322 0
-25 322 0
311 323 0
314 323 0
-311 -314 -323 0
-318 323 -324 0
318 -323 -324 0
324 -323 -318 0
318 323 324 0
-26 -324 0
314 -325 -326 0
325 -314 -326 0
-314 -325 326 0
314 325 326 0
-23 -326 0
325 -314 -327 0
314 -325 -327 0
327 -325 -314 0
327 325 314 0
-24 327 0
-314 328 0
-325 328 0
314 325 -328 0
325 -328 -329 0
-325 328 -329 0
-325 -328 329 0
325 328 329 0
-25 329 0
314 330 0
325 330 0
-314 -325 -330 0
-325 330 -331 0
325 -330 -331 0
331 -330 -325 0
325 330 331 0
-26 -331 0
332 -14 -333 0
14 -332 -333 0
-332 -14 333 0
14 332 333 0
-23 -333 0
14 -334 -335 0
334 -14 -335 0
335 -14 -334 0
335 14 334 0
-24 335 0
-104 336 0
-105 336 0
-106 336 0
-107 336 0
-332 336 0
-334 336 0
337 0
14 -336 -338 0
-14 336 -338 0
-14 -336 338 0
14 336 338 0
-25 338 0
104 339 0
105 339 0
106 339 0
107 339 0
332 339 0
334 339 0
-340 0
-14 339 -341 0
14 -339 -341 0
341 -339 -14 0
14 339 341 0
-26 -341 0
334 -342 -343 0
342 -334 -343 0
-334 -342 343 0
334 342 343 0
-23 -343 0
-107 342 -344 0
107 -342 -344 0
344 -342 -107 0
344 342 107 0
-24 344 0
-104 345 0
-105 345 0
-106 345 0
-107 345 0
-334 345 0
104 105 106 107 334 -345 0
342 -345 -346 0
-342 345 -346 0
-342 -345 346 0
342 345 346 0
-25 346 0
104 347 0
105 347 0
106 347 0
107 347 0
334 347 0
-348 0
-342 347 -349 0
342 -347 -349 0
349 -347 -342 0
342 347 349 0
-26 -349 0
350 -15 -351 0
15 -350 -351 0
-350 -15 351 0
15 350 351 0
-23 -351 0
15 -352 -353 0
352 -15 -353 0
353 -15 -352 0
353 15 352 0
-24 353 0
-104 354 0
-105 354 0
-106 354 0
-107 354 0
-334 354 0
-350 354 0
-352 354 0
355 0
15 -354 -356 0
-15 354 -356 0
-15 -354 356 0
15 354 356 0
-25 356 0
104 357 0
105 357 0
106 357 0
107 357 0
334 357 0
350 357 0
352 357 0
-358 0
-15 357 -359 0
15 -357 -359 0
359 -357 -15 0
15 357 359 0
-26 -359 0
352 -360 -361 0
360 -352 -361 0
-352 -360 361 0
352 360 361 0
-23 -361 0
-334 360 -362 0
334 -360 -362 0
362 -360 -334 0
362 360 334 0
-24 362 0
-104 363 0
-105 363 0
-106 363 0
-107 363 0
-334 363 0
-352 363 0
364 0
360 -363 -365 0
-360 363 -365 0
-360 -363 365 0
360 363 365 0
-25 365 0
104 366 0
105 366 0
106 366 0
107 366 0
334 366 0
352 366 0
-367 0
-360 366 -368 0
360 -366 -368 0
368 -366 -360 0
360 366 368 0
-26 -368 0
369 -16 -370 0
16 -369 -370 0
-369 -16 370 0
16 369 370 0
-23 -370 0
16 -371 -372 0
371 -16 -372 0
372 -16 -371 0
372 16 371 0
-24 372 0
-369 373 0
-371 373 0
-374 373 0
-375 373 0
-376 373 0
-377 373 0
-378 373 0
-379 373 0
380 0
16 -373 -381 0
-16 373 -381 0
-16 -373 381 0
16 373 381 0
-25 381 0
369 382 0
371 382 0
374 382 0
375 382 0
376 382 0
377 382 0
378 382 0
379 382 0
-383 0
-16 382 -384 0
16 -382 -384 0
384 -382 -16 0
16 382 384 0
-26 -384 0
371 -385 -386 0
385 -371 -386 0
-371 -385 386 0
371 385 386 0
-23 -386 0
385 -374 -387 0
374 -385 -387 0
387 -385 -374 0
387 385 374 0
-24 387 0
-371 388 0
-374 388 0
-375 388 0
-376 388 0
-377 388 0
-378 388 0
-379 388 0
389 0
385 -388 -390 0
-385 388 -390 0
-385 -388 390 0
385 388 390 0
-25 390 0
371 391 0
374 391 0
375 391 0
376 391 0
377 391 0
378 391 0
379 391 0
-392 0
-385 391 -393 0
385 -391 -393 0
393 -391 -385 0
385 391 393 0
-26 -393 0
374 -394 -395 0
394 -374 -395 0
-374 -394 395 0
374 394 395 0
-23 -395 0
394 -375 -396 0
375 -394 -396 0
396 -394 -375 0
396 394 375 0
-24 396 0
-374 397 0
-375 397 0
-376 397 0
-377 397 0
-378 397 0
-379 397 0
398 0
394 -397 -399 0
-394 397 -399 0
-394 -397 399 0
394 397 399 0
-25 399 0
374 400 0
375 400 0
376 400 0
377 400 0
378 400 0
379 400 0
-401 0
-394 400 -402 0
394 -400 -402 0
402 -400 -394 0
394 400 402 0
-26 -402 0
375 -403 -404 0
403 -375 -404 0
-375 -403 404 0
375 403 404 0
-23 -404 0
403 -376 -405 0
376 -403 -405 0
405 -403 -376 0
405 403 376 0
-24 405 0
-375 406 0
-376 406 0
-377 406 0
-378 406 0
-379 406 0
375 376 377 378 379 -406 0
403 -406 -407 0
-403 406 -407 0
-403 -406 407 0
403 406 407 0
-25 407 0
375 408 0
376 408 0
377 408 0
378 408 0
379 408 0
-409 0
-403 408 -410 0
403 -408 -410 0
410 -408 -403 0
403 408 410 0
-26 -410 0
376 -411 -412 0
411 -376 -412 0
-376 -411 412 0
376 411 412 0
-23 -412 0
411 -377 -413 0
377 -411 -413 0
413 -411 -377 0
413 411 377 0
-24 413 0
-376 414 0
-377 414 0
-378 414 0
-379 414 0
376 377 378 379 -414 0
411 -414 -415 0
-411 414 -415 0
-411 -414 415 0
411 414 415 0
-25 415 0
376 416 0
377 416 0
378 416 0
379 416 0
-417 0
-411 416 -418 0
411 -416 -418 0
418 -416 -411 0
411 416 418 0
-26 -418 0
377 -419 -420 0
419 -377 -420 0
-377 -419 420 0
377 419 420 0
-23 -420 0
419 -378 -421 0
378 -419 -421 0
421 -419 -378 0
421 419 378 0
-24 421 0
419 -414 -422 0
-419 414 -422 0
-419 -414 422 0
419 414 422 0
-25 422 0
-419 416 -423 0
419 -416 -423 0
423 -416 -419 0
419 416 423 0
-26 -423 0
378 -424 -425 0
424 -378 -425 0
-378 -424 425 0
378 424 425 0
-23 -425 0
424 -379 -426 0
379 -424 -426 0
426 -424 -379 0
426 424 379 0
-24 426 0
424 -414 -427 0
-424 414 -427 0
-424 -414 427 0
424 414 427 0
-25 427 0
-424 416 -428 0
424 -416 -428 0
428 -416 -424 0
424 416 428 0
-26 -428 0
379 -429 -430 0
429 -379 -430 0
-379 -429 430 0
379 429 430 0
-23 -430 0
-376 429 -431 0
376 -429 -431 0
431 -429 -376 0
431 429 376 0
-24 431 0
-379 432 0
-411 432 0
379 411 -432 0
429 -432 -433 0
-429 432 -433 0
-429 -432 433 0
429 432 433 0
-25 433 0
379 434 0
411 434 0
-379 -411 -434 0
-429 434 -435 0
429 -434 -435 0
435 -434 -429 0
429 434 435 0
-26 -435 0
436 -17 -437 0
17 -436 -437 0
-436 -17 437 0
17 436 437 0
-23 -437 0
17 -438 -439 0
438 -17 -439 0
439 -17 -438 0
439 17 438 0
-24 439 0
-436 440 0
-438 440 0
-441 440 0
-442 440 0
-443 440 0
-444 440 0
445 0
17 -440 -446 0
-17 440 -446 0
-17 -440 446 0
17 440 446 0
-25 446 0
436 447 0
438 447 0
441 447 0
442 447 0
443 447 0
444 447 0
-448 0
-17 447 -449 0
17 -447 -449 0
449 -447 -17 0
17 447 449 0
-26 -449 0
438 -18 -450 0
18 -438 -450 0
-438 -18 450 0
438 18 450 0
-23 -450 0
18 -441 -451 0
441 -18 -451 0
451 -18 -441 0
451 18 441 0
-24 451 0
-438 452 0
-441 452 0
-442 452 0
-443 452 0
-444 452 0
438 441 442 443 444 -452 0
18 -452 -453 0
-18 452 -453 0
-18 -452 453 0
18 452 453 0
-25 453 0
438 454 0
441 454 0
442 454 0
443 454 0
444 454 0
-455 0
-18 454 -456 0
18 -454 -456 0
456 -454 -18 0
18 454 456 0
-26 -456 0
441 -19 -457 0
19 -441 -457 0
-441 -19 457 0
441 19 457 0
-23 -457 0
19 -442 -458 0
442 -19 -458 0
458 -19 -442 0
458 19 442 0
-24 458 0
19 -452 -459 0
-19 452 -459 0
-19 -452 459 0
19 452 459 0
-25 459 0
-19 454 -460 0
19 -454 -460 0
460 -454 -19 0
19 454 460 0
-26 -460 0
442 -461 -462 0
461 -442 -462 0
-442 -461 462 0
442 461 462 0
-23 -462 0
461 -443 -463 0
443 -461 -463 0
463 -461 -443 0
463 461 443 0
-24 463 0
461 -452 -464 0
-461 452 -464 0
-461 -452 464 0
461 452 464 0
-25 464 0
-461 454 -465 0
461 -454 -465 0
465 -454 -461 0
461 454 465 0
-26 -465 0
443 -466 -467 0
466 -443 -467 0
-443 -466 467 0
443 466 467 0
-23 -467 0
466 -444 -468 0
444 -466 -468 0
468 -466 -444 0
468 466 444 0
-24 468 0
466 -452 -469 0
-466 452 -469 0
-466 -452 469 0
466 452 469 0
-25 469 0
-466 454 -470 0
466 -454 -470 0
470 -454 -466 0
466 454 470 0
-26 -470 0
444 -471 -472 0
471 -444 -472 0
-444 -471 472 0
444 471 472 0
-23 -472 0
-438 471 -473 0
438 -471 -473 0
473 -471 -438 0
473 471 438 0
-24 473 0
-444 474 0
-18 474 0
444 18 -474 0
471 -474 -475 0
-471 474 -475 0
-471 -474 475 0
471 474 475 0
-25 475 0
444 476 0
18 476 0
-444 -18 -476 0
-471 476 -477 0
471 -476 -477 0
477 -476 -471 0
471 476 477 0
-26 -477 0
478 -20 -479 0
20 -478 -479 0
-478 -20 479 0
20 478 479 0
-23 -479 0
20 -480 -481 0
480 -20 -481 0
481 -20 -480 0
481 20 480 0
-24 481 0
-47 482 0
-48 482 0
-49 482 0
-50 482 0
-51 482 0
-478 482 0
-480 482 0
483 0
20 -482 -484 0
-20 482 -484 0
-20 -482 484 0
20 482 484 0
-25 484 0
47 485 0
48 485 0
49 485 0
50 485 0
51 485 0
478 485 0
480 485 0
-486 0
-20 485 -487 0
20 -485 -487 0
487 -485 -20 0
20 485 487 0
-26 -487 0
480 -488 -489 0
488 -480 -489 0
-480 -488 489 0
480 488 489 0
-23 -489 0
-47 488 -490 0
47 -488 -490 0
490 -488 -47 0
490 488 47 0
-24 490 0
-47 491 0
-48 491 0
-49 491 0
-50 491 0
-51 491 0
-480 491 0
47 48 49 50 51 480 -491 0
488 -491 -492 0
-488 491 -492 0
-488 -491 492 0
488 491 492 0
-25 492 0
47 493 0
48 493 0
49 493 0
50 493 0
51 493 0
480 493 0
-494 0
-488 493 -495 0
488 -493 -495 0
495 -493 -488 0
488 493 495 0
-26 -495 0
496 -21 -497 0
21 -496 -497 0
-496 -21 497 0
21 496 497 0
-23 -497 0
21 -498 -499 0
498 -21 -499 0
499 -21 -498 0
499 21 498 0
-24 499 0
-156 500 0
-159 500 0
-496 500 0
-498 500 0
-501 500 0
156 159 496 498 501 -500 0
21 -500 -502 0
-21 500 -502 0
-21 -500 502 0
21 500 502 0
-25 502 0
156 503 0
159 503 0
496 503 0
498 503 0
501 503 0
-504 0
-21 503 -505 0
21 -503 -505 0
505 -503 -21 0
21 503 505 0
-26 -505 0
498 -506 -507 0
506 -498 -507 0
-498 -506 507 0
498 506 507 0
-23 -507 0
506 -501 -508 0
501 -506 -508 0
508 -506 -501 0
508 506 501 0
-24 508 0
-156 509 0
-159 509 0
-498 509 0
-501 509 0
156 159 498 501 -509 0
506 -509 -510 0
-506 509 -510 0
-506 -509 510 0
506 509 510 0
-25 510 0
156 511 0
159 511 0
498 511 0
501 511 0
-512 0
-506 511 -513 0
506 -511 -513 0
513 -511 -506 0
506 511 513 0
-26 -513 0
501 -514 -515 0
514 -501 -515 0
-501 -514 515 0
501 514 515 0
-23 -515 0
-156 514 -516 0
156 -514 -516 0
516 -514 -156 0
516 514 156 0
-24 516 0
-156 517 0
-159 517 0
-501 517 0
156 159 501 -517 0
514 -517 -518 0
-514 517 -518 0
-514 -517 518 0
514 517 518 0
-25 518 0
156 519 0
159 519 0
501 519 0
-156 -159 -501 -519 0
-514 519 -520 0
514 -519 -520 0
520 -519 -514 0
514 519 520 0
-26 -520 0
521 -22 -522 0
22 -521 -522 0
-521 -22 522 0
22 521 522 0
-23 -522 0
22 -523 -524 0
523 -22 -524 0
524 -22 -523 0
524 22 523 0
-24 524 0
-438 525 0
-441 525 0
-442 525 0
-443 525 0
-444 525 0
-521 525 0
-523 525 0
526 0
22 -525 -527 0
-22 525 -527 0
-22 -525 527 0
22 525 527 0
-25 527 0
438 528 0
441 528 0
442 528 0
443 528 0
444 528 0
521 528 0
523 528 0
-529 0
-22 528 -530 0
22 -528 -530 0
530 -528 -22 0
22 528 530 0
-26 -530 0
523 -531 -532 0
531 -523 -532 0
-523 -531 532 0
523 531 532 0
-23 -532 0
-441 531 -533 0
441 -531 -533 0
533 -531 -441 0
533 531 441 0
-24 533 0
-438 534 0
-441 534 0
-442 534 0
-443 534 0
-444 534 0
-523 534 0
535 0
531 -534 -536 0
-531 534 -536 0
-531 -534 536 0
531 534 536 0
-25 536 0
438 537 0
441 537 0
442 537 0
443 537 0
444 537 0
523 537 0
-538 0
-531 537 -539 0
531 -537 -539 0
539 -537 -531 0
531 537 539 0
-26 -539 0
27 0
-29 0
-42 0
-44 0
47 0
-48 0
49 0
-50 0
-51 0
98 0
100 0
-103 0
104 0
105 0
-106 0
107 0
154 0
156 0
-159 0
175 0
-177 0
-180 0
-181 0
182 0
-214 0
-216 0
-219 0
220 0
-247 0
-249 0
-252 0
253 0
284 0
-286 0
-289 0
309 0
-311 0
314 0
332 0
334 0
350 0
-352 0
-369 0
-371 0
-374 0
375 0
376 0
377 0
-378 0
-379 0
436 0
438 0
-441 0
-442 0
443 0
444 0
478 0
480 0
496 0
-498 0
-501 0
521 0
-523 0
